p cnf 60 1340
-4 -14
-4 -18
-4 -20
-4 -38
-4 -50
-4 -64
-4 -66
-4 -76
-4 -90
-4 -108
-4 -112
-4 -128
-4 -132
-4 -142
-4 -146
-4 -150
-4 -156
-4 -170
-4 -174
-4 -176
-4 -188
-4 -190
-4 -196
-4 -202
-4 -204
-4 -212
-4 -218
-4 -226
-4 -228
-4 -236
-4 -264
-4 -268
-4 -282
-4 -286
-4 -288
-4 -308
-4 -314
-4 -340
-4 -348
-4 -350
-4 -354
-4 -364
-4 -384
-4 -390
-4 -392
-4 -396
-4 -398
-14 -18
-14 -20
-14 -38
-14 -50
-14 -64
-14 -76
-14 -90
-14 -102
-14 -110
-14 -116
-14 -128
-14 -132
-14 -142
-14 -146
-14 -148
-14 -156
-14 -170
-14 -174
-14 -176
-14 -188
-14 -190
-14 -198
-14 -202
-14 -212
-14 -226
-14 -228
-14 -236
-14 -264
-14 -268
-14 -270
-14 -282
-14 -284
-14 -286
-14 -288
-14 -308
-14 -314
-14 -330
-14 -338
-14 -348
-14 -350
-14 -372
-14 -386
-14 -390
-14 -396
-14 -398
-18 -20
-18 -38
-18 -50
-18 -66
-18 -76
-18 -88
-18 -90
-18 -102
-18 -108
-18 -110
-18 -112
-18 -116
-18 -146
-18 -148
-18 -150
-18 -156
-18 -170
-18 -174
-18 -176
-18 -188
-18 -190
-18 -196
-18 -198
-18 -202
-18 -204
-18 -212
-18 -228
-18 -236
-18 -264
-18 -268
-18 -270
-18 -282
-18 -284
-18 -286
-18 -288
-18 -308
-18 -314
-18 -340
-18 -348
-18 -350
-18 -354
-18 -364
-18 -372
-18 -384
-18 -386
-18 -396
-18 -398
-20 -50
-20 -64
-20 -66
-20 -88
-20 -108
-20 -110
-20 -112
-20 -116
-20 -128
-20 -148
-20 -150
-20 -156
-20 -170
-20 -176
-20 -188
-20 -198
-20 -204
-20 -212
-20 -218
-20 -226
-20 -228
-20 -264
-20 -270
-20 -284
-20 -286
-20 -288
-20 -308
-20 -314
-20 -330
-20 -338
-20 -340
-20 -348
-20 -350
-20 -354
-20 -386
-20 -390
-20 -392
-20 -398
-38 -50
-38 -64
-38 -66
-38 -76
-38 -90
-38 -108
-38 -110
-38 -112
-38 -116
-38 -128
-38 -132
-38 -146
-38 -150
-38 -156
-38 -170
-38 -174
-38 -176
-38 -188
-38 -196
-38 -198
-38 -204
-38 -212
-38 -218
-38 -228
-38 -236
-38 -264
-38 -268
-38 -270
-38 -282
-38 -284
-38 -308
-38 -314
-38 -338
-38 -340
-38 -348
-38 -350
-38 -364
-38 -372
-38 -384
-38 -386
-38 -390
-38 -396
-50 -64
-50 -66
-50 -76
-50 -88
-50 -102
-50 -108
-50 -110
-50 -128
-50 -132
-50 -146
-50 -150
-50 -156
-50 -170
-50 -174
-50 -176
-50 -188
-50 -190
-50 -196
-50 -202
-50 -204
-50 -212
-50 -218
-50 -226
-50 -268
-50 -270
-50 -284
-50 -308
-50 -314
-50 -330
-50 -338
-50 -340
-50 -350
-50 -364
-50 -384
-50 -390
-50 -392
-50 -396
-50 -398
-64 -76
-64 -88
-64 -90
-64 -102
-64 -108
-64 -110
-64 -116
-64 -132
-64 -142
-64 -148
-64 -150
-64 -170
-64 -174
-64 -190
-64 -196
-64 -198
-64 -202
-64 -204
-64 -212
-64 -218
-64 -228
-64 -236
-64 -264
-64 -268
-64 -282
-64 -284
-64 -286
-64 -288
-64 -308
-64 -314
-64 -330
-64 -338
-64 -350
-64 -354
-64 -364
-64 -372
-64 -384
-64 -392
-64 -398
-66 -76
-66 -88
-66 -90
-66 -102
-66 -108
-66 -110
-66 -112
-66 -128
-66 -132
-66 -142
-66 -146
-66 -148
-66 -150
-66 -156
-66 -170
-66 -174
-66 -176
-66 -188
-66 -190
-66 -202
-66 -226
-66 -228
-66 -236
-66 -268
-66 -270
-66 -284
-66 -286
-66 -308
-66 -314
-66 -340
-66 -348
-66 -350
-66 -354
-66 -372
-66 -384
-66 -386
-66 -390
-66 -392
-66 -396
-76 -88
-76 -90
-76 -102
-76 -108
-76 -112
-76 -132
-76 -142
-76 -148
-76 -150
-76 -156
-76 -170
-76 -174
-76 -176
-76 -188
-76 -196
-76 -198
-76 -202
-76 -204
-76 -212
-76 -218
-76 -226
-76 -228
-76 -236
-76 -264
-76 -268
-76 -270
-76 -284
-76 -288
-76 -308
-76 -330
-76 -338
-76 -350
-76 -354
-76 -384
-76 -390
-76 -392
-76 -398
-88 -90
-88 -110
-88 -112
-88 -116
-88 -146
-88 -148
-88 -150
-88 -156
-88 -170
-88 -174
-88 -176
-88 -188
-88 -190
-88 -198
-88 -202
-88 -204
-88 -218
-88 -226
-88 -228
-88 -236
-88 -270
-88 -282
-88 -286
-88 -288
-88 -308
-88 -314
-88 -330
-88 -338
-88 -340
-88 -350
-88 -364
-88 -384
-88 -390
-88 -396
-88 -398
-90 -102
-90 -108
-90 -110
-90 -116
-90 -128
-90 -132
-90 -142
-90 -146
-90 -148
-90 -156
-90 -170
-90 -174
-90 -176
-90 -188
-90 -190
-90 -196
-90 -202
-90 -212
-90 -218
-90 -226
-90 -228
-90 -236
-90 -264
-90 -270
-90 -282
-90 -284
-90 -288
-90 -330
-90 -340
-90 -348
-90 -350
-90 -354
-90 -364
-90 -384
-90 -386
-90 -392
-90 -396
-90 -398
-102 -108
-102 -110
-102 -112
-102 -116
-102 -142
-102 -146
-102 -148
-102 -150
-102 -156
-102 -174
-102 -176
-102 -190
-102 -198
-102 -202
-102 -204
-102 -212
-102 -218
-102 -226
-102 -228
-102 -236
-102 -264
-102 -268
-102 -270
-102 -284
-102 -286
-102 -288
-102 -308
-102 -314
-102 -330
-102 -340
-102 -348
-102 -350
-102 -372
-102 -384
-102 -386
-102 -396
-102 -398
-108 -110
-108 -116
-108 -150
-108 -156
-108 -170
-108 -174
-108 -176
-108 -188
-108 -196
-108 -198
-108 -202
-108 -204
-108 -212
-108 -218
-108 -228
-108 -268
-108 -270
-108 -282
-108 -284
-108 -288
-108 -308
-108 -314
-108 -330
-108 -338
-108 -350
-108 -354
-108 -364
-108 -372
-108 -384
-108 -386
-108 -392
-108 -396
-108 -398
-110 -112
-110 -116
-110 -128
-110 -142
-110 -146
-110 -156
-110 -170
-110 -174
-110 -188
-110 -190
-110 -196
-110 -204
-110 -212
-110 -218
-110 -236
-110 -264
-110 -268
-110 -282
-110 -284
-110 -286
-110 -288
-110 -308
-110 -314
-110 -330
-110 -338
-110 -348
-110 -350
-110 -364
-110 -372
-110 -384
-110 -386
-110 -390
-110 -392
-110 -396
-110 -398
-112 -116
-112 -132
-112 -142
-112 -148
-112 -156
-112 -174
-112 -190
-112 -196
-112 -198
-112 -202
-112 -204
-112 -212
-112 -218
-112 -226
-112 -228
-112 -236
-112 -268
-112 -270
-112 -284
-112 -286
-112 -288
-112 -308
-112 -314
-112 -330
-112 -338
-112 -340
-112 -348
-112 -350
-112 -364
-112 -372
-112 -384
-112 -386
-112 -390
-112 -392
-112 -396
-112 -398
-116 -128
-116 -132
-116 -142
-116 -148
-116 -150
-116 -156
-116 -170
-116 -174
-116 -176
-116 -188
-116 -190
-116 -198
-116 -202
-116 -204
-116 -212
-116 -218
-116 -226
-116 -228
-116 -236
-116 -264
-116 -270
-116 -282
-116 -284
-116 -286
-116 -288
-116 -308
-116 -330
-116 -338
-116 -340
-116 -350
-116 -354
-116 -364
-116 -372
-116 -384
-116 -386
-116 -390
-116 -392
-116 -398
-128 -132
-128 -142
-128 -148
-128 -150
-128 -156
-128 -170
-128 -176
-128 -188
-128 -196
-128 -198
-128 -204
-128 -218
-128 -226
-128 -228
-128 -236
-128 -264
-128 -270
-128 -282
-128 -284
-128 -286
-128 -308
-128 -314
-128 -330
-128 -340
-128 -348
-128 -350
-128 -364
-128 -372
-128 -384
-128 -386
-128 -390
-128 -392
-128 -396
-128 -398
-132 -142
-132 -146
-132 -148
-132 -150
-132 -156
-132 -170
-132 -174
-132 -176
-132 -190
-132 -196
-132 -198
-132 -204
-132 -212
-132 -226
-132 -228
-132 -236
-132 -264
-132 -268
-132 -270
-132 -282
-132 -286
-132 -288
-132 -314
-132 -330
-132 -338
-132 -340
-132 -348
-132 -350
-132 -364
-132 -384
-132 -386
-132 -390
-132 -396
-132 -398
-142 -146
-142 -148
-142 -150
-142 -156
-142 -170
-142 -174
-142 -190
-142 -196
-142 -202
-142 -204
-142 -212
-142 -226
-142 -236
-142 -264
-142 -270
-142 -282
-142 -284
-142 -286
-142 -288
-142 -314
-142 -330
-142 -340
-142 -348
-142 -350
-142 -354
-142 -372
-142 -384
-142 -386
-142 -390
-142 -392
-142 -396
-142 -398
-146 -148
-146 -150
-146 -156
-146 -174
-146 -176
-146 -188
-146 -202
-146 -204
-146 -212
-146 -228
-146 -268
-146 -282
-146 -286
-146 -288
-146 -330
-146 -340
-146 -348
-146 -350
-146 -354
-146 -364
-146 -372
-146 -384
-146 -386
-146 -390
-146 -392
-146 -396
-146 -398
-148 -150
-148 -156
-148 -170
-148 -174
-148 -176
-148 -188
-148 -190
-148 -196
-148 -202
-148 -204
-148 -218
-148 -226
-148 -228
-148 -236
-148 -264
-148 -268
-148 -284
-148 -286
-148 -288
-148 -308
-148 -330
-148 -338
-148 -340
-148 -348
-148 -364
-148 -384
-148 -386
-148 -390
-148 -392
-148 -396
-148 -398
-150 -170
-150 -174
-150 -176
-150 -188
-150 -190
-150 -198
-150 -202
-150 -218
-150 -228
-150 -264
-150 -268
-150 -270
-150 -286
-150 -288
-150 -308
-150 -314
-150 -338
-150 -348
-150 -350
-150 -354
-150 -372
-150 -390
-150 -392
-150 -396
-150 -398
-156 -170
-156 -174
-156 -176
-156 -188
-156 -190
-156 -196
-156 -204
-156 -212
-156 -218
-156 -226
-156 -228
-156 -236
-156 -264
-156 -268
-156 -270
-156 -282
-156 -286
-156 -308
-156 -338
-156 -348
-156 -350
-156 -364
-156 -372
-156 -384
-156 -386
-156 -390
-156 -392
-156 -396
-156 -398
-170 -176
-170 -188
-170 -190
-170 -212
-170 -226
-170 -228
-170 -236
-170 -268
-170 -284
-170 -288
-170 -308
-170 -338
-170 -340
-170 -348
-170 -354
-170 -364
-170 -372
-170 -384
-170 -392
-170 -396
-170 -398
-174 -176
-174 -188
-174 -196
-174 -198
-174 -202
-174 -204
-174 -212
-174 -218
-174 -226
-174 -228
-174 -236
-174 -270
-174 -282
-174 -330
-174 -338
-174 -348
-174 -350
-174 -354
-174 -364
-174 -372
-174 -384
-174 -386
-174 -390
-174 -398
-176 -188
-176 -196
-176 -198
-176 -202
-176 -204
-176 -212
-176 -218
-176 -226
-176 -228
-176 -236
-176 -264
-176 -268
-176 -270
-176 -282
-176 -286
-176 -288
-176 -338
-176 -348
-176 -350
-176 -354
-176 -364
-176 -372
-176 -384
-176 -390
-176 -396
-176 -398
-188 -190
-188 -196
-188 -212
-188 -218
-188 -226
-188 -236
-188 -264
-188 -268
-188 -284
-188 -288
-188 -308
-188 -314
-188 -330
-188 -338
-188 -340
-188 -348
-188 -354
-188 -372
-188 -384
-188 -386
-188 -390
-188 -392
-188 -398
-190 -196
-190 -198
-190 -202
-190 -204
-190 -212
-190 -218
-190 -226
-190 -228
-190 -236
-190 -264
-190 -268
-190 -270
-190 -282
-190 -284
-190 -288
-190 -308
-190 -314
-190 -338
-190 -348
-190 -350
-190 -364
-190 -372
-190 -384
-190 -386
-190 -390
-190 -392
-190 -396
-190 -398
-196 -204
-196 -212
-196 -228
-196 -236
-196 -270
-196 -284
-196 -286
-196 -288
-196 -308
-196 -314
-196 -330
-196 -340
-196 -348
-196 -350
-196 -384
-196 -386
-196 -392
-196 -396
-196 -398
-198 -204
-198 -212
-198 -218
-198 -236
-198 -268
-198 -282
-198 -284
-198 -286
-198 -288
-198 -314
-198 -330
-198 -338
-198 -340
-198 -348
-198 -350
-198 -354
-198 -384
-198 -386
-198 -390
-198 -392
-198 -396
-198 -398
-202 -204
-202 -218
-202 -226
-202 -236
-202 -282
-202 -284
-202 -286
-202 -288
-202 -308
-202 -314
-202 -338
-202 -340
-202 -348
-202 -350
-202 -354
-202 -372
-202 -384
-202 -386
-202 -390
-202 -392
-202 -396
-204 -228
-204 -236
-204 -264
-204 -270
-204 -282
-204 -284
-204 -286
-204 -330
-204 -338
-204 -340
-204 -348
-204 -350
-204 -354
-204 -364
-204 -372
-204 -384
-204 -386
-204 -390
-204 -392
-204 -396
-204 -398
-212 -218
-212 -228
-212 -236
-212 -264
-212 -268
-212 -282
-212 -284
-212 -286
-212 -288
-212 -314
-212 -330
-212 -340
-212 -348
-212 -350
-212 -354
-212 -364
-212 -372
-212 -384
-212 -392
-212 -398
-218 -226
-218 -228
-218 -268
-218 -270
-218 -282
-218 -284
-218 -286
-218 -288
-218 -314
-218 -330
-218 -338
-218 -340
-218 -350
-218 -354
-218 -364
-218 -372
-218 -386
-218 -390
-218 -392
-218 -398
-226 -228
-226 -236
-226 -264
-226 -268
-226 -270
-226 -282
-226 -284
-226 -286
-226 -308
-226 -314
-226 -330
-226 -338
-226 -340
-226 -348
-226 -350
-226 -354
-226 -364
-226 -372
-226 -396
-226 -398
-228 -236
-228 -264
-228 -268
-228 -270
-228 -282
-228 -284
-228 -286
-228 -288
-228 -308
-228 -330
-228 -338
-228 -350
-228 -354
-228 -364
-228 -372
-228 -384
-228 -386
-228 -390
-228 -392
-228 -398
-236 -264
-236 -268
-236 -270
-236 -284
-236 -286
-236 -288
-236 -308
-236 -338
-236 -340
-236 -350
-236 -354
-236 -364
-236 -372
-236 -384
-236 -386
-236 -390
-236 -392
-236 -398
-264 -268
-264 -270
-264 -282
-264 -286
-264 -308
-264 -314
-264 -338
-264 -340
-264 -348
-264 -350
-264 -354
-264 -364
-264 -384
-264 -390
-264 -392
-264 -396
-264 -398
-268 -270
-268 -282
-268 -284
-268 -286
-268 -288
-268 -308
-268 -314
-268 -330
-268 -338
-268 -340
-268 -348
-268 -350
-268 -364
-268 -384
-268 -390
-268 -392
-268 -396
-268 -398
-270 -284
-270 -288
-270 -308
-270 -314
-270 -330
-270 -340
-270 -350
-270 -354
-270 -364
-270 -372
-270 -384
-270 -390
-270 -392
-270 -396
-270 -398
-282 -284
-282 -288
-282 -308
-282 -330
-282 -338
-282 -350
-282 -354
-282 -364
-282 -372
-282 -386
-282 -390
-282 -392
-282 -396
-282 -398
-284 -286
-284 -288
-284 -308
-284 -314
-284 -330
-284 -338
-284 -340
-284 -348
-284 -350
-284 -354
-284 -372
-284 -384
-284 -386
-284 -390
-284 -398
-286 -288
-286 -308
-286 -314
-286 -330
-286 -338
-286 -348
-286 -350
-286 -354
-286 -364
-286 -372
-286 -384
-286 -386
-286 -392
-286 -396
-286 -398
-288 -308
-288 -314
-288 -330
-288 -338
-288 -340
-288 -348
-288 -386
-288 -392
-288 -396
-308 -330
-308 -338
-308 -348
-308 -350
-308 -372
-308 -386
-308 -390
-308 -392
-308 -396
-314 -338
-314 -340
-314 -350
-314 -354
-314 -364
-314 -372
-314 -384
-314 -386
-314 -390
-314 -396
-314 -398
-330 -338
-330 -340
-330 -348
-330 -350
-330 -364
-330 -372
-330 -384
-330 -386
-330 -390
-330 -392
-330 -396
-330 -398
-338 -340
-338 -348
-338 -350
-338 -354
-338 -364
-338 -372
-338 -386
-338 -390
-338 -392
-338 -396
-338 -398
-340 -348
-340 -350
-340 -354
-340 -364
-340 -372
-340 -384
-340 -386
-340 -390
-340 -392
-340 -396
-340 -398
-348 -350
-348 -354
-348 -364
-348 -372
-348 -384
-348 -386
-348 -390
-348 -392
-348 -396
-348 -398
-350 -354
-350 -364
-350 -372
-350 -384
-350 -386
-350 -392
-350 -396
-354 -364
-354 -372
-354 -384
-354 -386
-354 -390
-354 -396
-354 -398
-364 -384
-364 -392
-364 -396
-372 -384
-372 -386
-372 -390
-372 -396
-372 -398
-384 -386
-384 -390
-384 -392
-384 -396
-384 -398
-386 -390
-386 -396
-386 -398
-390 -396
-390 -398
-392 -396
-392 -398

